c Problem Statistics
c Number of variables: 2553
c Number of clauses: 2436
c Parse time (sec.) : 0.00
c
p cnf 2553 1438
-529 0
-506 0
-483 0
270 0
273 0
274 0
296 0
145 0
30 0
-31 0
46 0
85 0
-133 0
-148 0
-149 0
-163 0
181 0
-199 0
-224 0
-279 0
280 0
-324 0
-347 0
-348 0
-336 0
343 0
-344 0
382 0
386 0
-387 0
388 0
-405 0
406 0
-433 0
-471 0
-472 0
475 0
-498 0
476 0
-499 0
477 0
522 0
500 0
523 0
524 0
525 0
526 0
479 0
-480 0
-502 0
-503 0
2 0
3 0
6 0
7 0
8 0
10 0
11 0
14 0
15 0
16 0
18 0
42 0
20 0
65 0
21 0
23 0
47 0
70 0
93 0
116 0
117 0
139 0
140 0
162 0
185 0
208 0
186 0
231 0
232 0
254 0
277 0
38 0
61 0
62 0
41 0
63 0
64 0
86 0
94 0
53 0
78 0
69 0
102 0
107 0
108 0
89 0
111 0
112 0
134 0
135 0
136 0
92 0
121 0
146 0
147 0
125 0
170 0
126 0
171 0
150 0
131 0
164 0
156 0
158 0
182 0
167 0
168 0
190 0
169 0
191 0
192 0
215 0
238 0
176 0
200 0
223 0
201 0
246 0
247 0
269 0
179 0
180 0
225 0
248 0
271 0
226 0
249 0
207 0
220 0
243 0
229 0
251 0
252 0
275 0
260 0
242 0
267 0
276 0
256 0
281 0
282 0
284 0
308 0
312 0
335 0
317 0
1645 0
323 0
346 0
369 0
392 0
415 0
310 0
337 0
319 0
341 0
364 0
342 0
365 0
366 0
367 0
389 0
390 0
345 0
349 0
352 0
353 0
357 0
380 0
363 0
378 0
379 0
381 0
359 0
383 0
384 0
407 0
371 0
374 0
398 0
414 0
395 0
417 0
418 0
420 0
423 0
446 0
409 0
410 0
411 0
412 0
442 0
425 0
447 0
448 0
427 0
428 0
429 0
452 0
432 0
459 0
460 0
440 0
450 0
473 0
478 0
456 0
501 0
481 0
504 0
527 0
484 0
507 0
490 0
491 0
426 0
505 0
528 0
494 0
519 0
520 0
521 0
514 0
370 0
453 0
206 0
311 0
511 0
68 0
106 0
214 0
261 0
402 0
469 0
77 0
113 0
286 0
132 0
29 0
35 0
97 0
95 0
142 0
227 0
467 0
487 0
393 0
25 0
37 0
51 0
56 0
101 0
103 0
110 0
115 0
122 0
128 0
153 0
157 0
173 0
245 0
257 0
259 0
301 0
278 0
340 0
351 0
362 0
368 0
404 0
437 0
482 0
436 0
413 0
497 0
496 0
518 0
517 0
123 0
189 0
211 0
230 0
316 0
320 0
376 0
441 0
451 0
449 0
138 0
144 0
178 0
197 0
240 0
265 0
304 0
313 0
377 0
385 0
462 0
39 0
203 0
258 0
202 0
250 0
253 0
298 0
463 0
1660 -302 24 -300 255 0
-1660 302 255 24 -300 0
-161 -137 -160 114 91 0
-124 -99 -100 -55 120 0
399 -400 330 354 -375 0
-2032 373 397 -396 0
2031 -396 -394 373 0
-2031 396 373 -394 0
2030 -396 -394 -373 0
-2121 396 419 394 0
2120 -396 -419 394 0
-2120 -396 419 394 0
2119 396 -419 -394 0
-2119 396 419 -394 0
2118 -396 -419 -394 0
-2118 -396 419 -394 0
2043 -399 330 -375 0
-2043 330 -375 399 0
-1938 -350 373 -372 0
1895 360 -361 338 0
-1895 361 338 360 0
1894 360 -338 -361 0
1726 -318 294 -295 0
-1726 318 294 -295 0
1725 -318 -294 295 0
2378 -485 -461 439 0
-2378 485 -461 439 0
2301 -419 -465 464 0
-2301 -419 465 464 0
2300 419 -465 464 0
-1892 -360 -338 361 0
-2300 419 465 464 0
1765 305 327 -328 0
-1765 305 327 328 0
2042 -399 -330 -375 0
2035 396 -373 -397 0
-2035 396 -373 397 0
2034 -397 373 396 0
-2034 373 397 396 0
2033 -396 -373 -397 0
-2033 -396 -373 397 0
2032 -397 373 -396 0
-1941 350 372 373 0
1940 -350 372 -373 0
-1940 373 372 -350 0
1939 -373 -372 350 0
2131 -422 399 -421 0
-2131 422 399 -421 0
2130 -422 -399 -421 0
-2130 422 -399 -421 0
2121 396 -419 394 0
792 -80 -79 -57 0
-793 -79 57 80 0
793 -80 -79 57 0
-794 80 -57 79 0
794 -80 -57 79 0
-795 80 57 79 0
795 -80 57 79 0
-796 -80 -58 81 0
796 -80 -58 -81 0
-797 -80 58 81 0
766 72 -50 -73 0
-767 72 50 73 0
767 72 -73 50 0
-772 75 -52 -74 0
772 -52 -75 -74 0
-773 52 -74 75 0
773 52 -74 -75 0
2029 -396 373 394 0
-2029 396 373 394 0
-1894 -338 361 360 0
1893 -360 -361 338 0
2028 -396 -373 394 0
-2028 396 394 -373 0
-1893 361 338 -360 0
2011 -322 -391 -318 0
1892 -338 -361 -360 0
2010 322 -391 -318 0
-2010 322 391 -318 0
1941 -373 372 350 0
-1880 -334 -289 358 0
2275 457 -458 435 0
-2275 457 458 435 0
2274 457 -458 -435 0
-2274 457 458 -435 0
2273 435 -457 -458 0
-2273 435 -457 458 0
2272 -458 -457 -435 0
-2272 458 -457 -435 0
2262 431 454 -455 0
-2262 431 454 455 0
2394 488 -489 -466 0
-2394 488 489 -466 0
2393 -488 466 -489 0
-2393 -488 466 489 0
2392 -488 -489 -466 0
-2392 -466 489 -488 0
-1712 -292 315 -314 0
1712 -292 -315 -314 0
-1405 235 213 236 0
2138 -424 -400 -401 0
-2138 424 -401 -400 0
-1415 -166 216 239 0
-2499 493 -515 516 0
2498 -493 -515 -516 0
-2498 -493 -515 516 0
1405 235 213 -236 0
-1714 -292 315 314 0
-1399 -234 212 235 0
-1414 -216 239 -166 0
1415 -239 216 -166 0
1714 -292 -315 314 0
1399 -235 -234 212 0
-1416 -216 166 239 0
2470 -509 -486 -508 0
-1881 289 -334 358 0
1880 -334 -289 -358 0
-1882 334 -289 358 0
1881 289 -334 -358 0
-2030 396 -373 -394 0
2133 -422 399 421 0
-2133 422 399 421 0
2132 -422 -399 421 0
-2132 422 -399 421 0
1867 331 -354 330 0
-1867 331 354 330 0
1866 -331 -354 330 0
-1866 -331 354 330 0
1865 331 -354 -330 0
-1865 331 354 -330 0
1864 -331 -354 -330 0
-1864 -331 -330 354 0
1743 -322 321 299 0
-1743 322 321 299 0
1727 -318 294 295 0
-1727 318 294 295 0
2379 -439 -461 -485 0
2299 -419 -465 -464 0
1849 -326 327 -350 0
-1849 -326 327 350 0
1781 331 -332 309 0
-1781 331 332 309 0
1780 331 -332 -309 0
-1780 331 332 -309 0
1779 -331 -332 309 0
-1779 -331 332 309 0
1778 -331 -332 -309 0
-1778 -331 332 -309 0
1773 329 -330 307 0
-1773 329 330 307 0
1772 -307 329 -330 0
-1772 -307 329 330 0
1771 -329 -330 307 0
-1883 334 289 358 0
1882 334 -289 -358 0
743 -66 -67 44 0
-744 66 67 -44 0
744 -67 -44 66 0
-745 66 67 44 0
-946 118 119 -96 0
946 118 -119 -96 0
-947 118 119 96 0
947 118 -119 96 0
-804 83 -82 -60 0
804 -60 -82 -83 0
-832 -67 88 90 0
832 -67 88 -90 0
-72 118 48 24 0
1883 334 289 -358 0
72 -118 24 48 0
580 -1 -26 -24 0
-205 -228 -177 -204 0
-610 33 -9 32 0
610 32 -9 -33 0
-611 33 9 32 0
611 32 9 -33 0
-580 -1 26 -24 0
-582 -1 26 24 0
582 -1 -26 24 0
-588 -5 -27 28 0
-739 66 19 43 0
739 -66 19 43 0
-988 130 -129 84 0
988 -130 -129 84 0
-989 130 -129 -84 0
-740 66 -43 -19 0
-66 740 -19 -43 0
-741 66 43 -19 0
741 -66 43 -19 0
-742 67 -44 -66 0
742 -67 -44 -66 0
-743 -66 67 44 0
-1771 307 -329 330 0
-1715 292 314 315 0
1715 292 314 -315 0
-1724 318 -294 -295 0
1724 -318 -294 -295 0
-1725 318 -294 295 0
-118 -96 24 73 0
118 -96 -24 73 0
-183 -299 -228 -205 0
-285 -263 264 -287 0
-236 -213 166 237 0
-183 299 205 -228 0
-67 45 91 -90 0
-5 -52 28 50 0
99 54 100 76 0
-488 465 464 486 0
-129 127 105 -83 0
-12 -34 -36 -13 0
-52 5 28 -50 0
-2042 -330 399 -375 0
-241 218 239 -217 0
-2011 -322 391 -318 0
-175 -174 -198 -196 0
-129 -127 105 83 0
285 263 264 -287 0
334 -288 -333 309 0
-309 288 -333 334 0
183 299 -228 -205 0
-1104 -155 88 159 0
83 -13 -36 84 0
-96 -120 -119 -74 0
-1071 127 -105 151 0
291 -290 -289 -314 0
12 34 -13 -36 0
789 -79 57 -55 0
-237 236 166 -213 0
-1770 -307 330 -329 0
1770 -307 -330 -329 0
-835 67 -88 90 0
835 67 -88 -90 0
-869 99 98 76 0
869 98 -99 76 0
-944 -118 119 -96 0
944 -118 -119 -96 0
-945 -118 119 96 0
945 -118 -119 96 0
-1939 373 -372 350 0
1938 -373 -372 -350 0
-792 -79 -57 80 0
67 91 -45 -90 0
74 -120 -119 96 0
444 -513 512 -466 0
-155 -154 109 130 0
-141 -120 143 -119 0
233 -234 210 212 0
797 -80 58 -81 0
-798 80 -58 81 0
798 80 -58 -81 0
-799 80 58 81 0
799 80 58 -81 0
-764 -72 -50 73 0
764 -50 -73 -72 0
-765 -72 73 50 0
765 -72 -73 50 0
-766 72 73 -50 0
-774 -52 74 75 0
774 -52 -75 74 0
-775 75 52 74 0
775 74 -75 52 0
-788 79 -57 -55 0
788 -79 -55 -57 0
-241 264 -287 -288 0
-789 79 -55 57 0
-834 -67 -88 90 0
834 -67 -88 -90 0
-2379 -439 -461 485 0
-424 -400 -468 -470 0
-424 468 -470 400 0
431 474 454 -430 0
172 151 -174 -127 0
-75 96 -74 98 0
74 -75 -96 98 0
-90 91 88 -114 0
-90 -88 91 114 0
334 403 356 -401 0
-403 -401 -334 356 0
-1084 152 154 -130 0
-100 54 -99 76 0
-833 67 88 90 0
833 67 88 -90 0
-608 33 -9 -32 0
608 -32 -9 -33 0
-609 33 9 -32 0
609 -32 9 -33 0
-1530 268 244 222 0
-489 -512 510 -488 0
-489 488 -512 -510 0
488 -465 464 486 0
588 -27 -28 -5 0
-589 5 28 -27 0
589 5 -28 -27 0
-590 -5 27 28 0
590 -5 -28 27 0
-591 5 28 27 0
591 5 -28 27 0
2460 -435 -318 458 0
2460 -435 408 458 0
130 155 109 154 0
-263 262 239 -217 0
73 74 50 28 0
-444 -513 512 466 0
445 -466 468 -444 0
445 468 466 444 0
-1077 151 129 152 0
1076 151 -129 -152 0
-1076 151 -129 152 0
1075 -151 129 -152 0
989 -130 -129 -84 0
-990 130 129 84 0
990 -130 129 84 0
-976 -124 127 -104 0
976 -124 -104 -127 0
991 129 -84 -130 0
-991 129 -84 130 0
979 -127 124 104 0
-979 127 124 104 0
978 -127 124 -104 0
-978 127 124 -104 0
977 -124 -127 104 0
-977 -124 127 104 0
-1393 233 -24 210 0
-1610 289 -266 -288 0
1610 -266 -289 -288 0
-1325 193 -166 216 0
-761 72 49 -71 0
761 -72 49 -71 0
-762 72 71 -49 0
762 -72 -49 71 0
-763 72 49 71 0
763 -72 49 71 0
-694 -32 -54 55 0
694 -32 -54 -55 0
-695 32 -54 55 0
695 32 -54 -55 0
-696 -32 54 55 0
696 -32 54 -55 0
-697 32 54 55 0
697 32 54 -55 0
-738 66 19 -43 0
738 -66 19 -43 0
-1215 165 188 -187 0
1333 195 -217 -218 0
1203 183 161 -184 0
-1203 183 161 184 0
-1334 217 -195 218 0
1202 -184 -161 183 0
-1202 184 -161 183 0
1201 -183 161 -184 0
-1075 -151 129 152 0
1074 -152 -151 -129 0
-1074 152 -151 -129 0
-1404 235 -213 236 0
-1332 -195 -217 218 0
1332 -195 -217 -218 0
1404 235 -213 -236 0
1071 127 -105 -151 0
1512 -263 -264 -241 0
1019 -88 114 -137 0
-1019 137 -88 114 0
237 262 239 -166 0
-262 -166 -239 237 0
509 488 -465 -510 0
-488 509 465 -510 0
745 66 -67 44 0
-760 72 -71 -49 0
760 -72 -71 -49 0
-1676 306 -305 -283 0
1417 216 166 -239 0
1403 -235 213 -236 0
1327 -216 166 193 0
-1513 -263 264 241 0
-1082 -152 154 -130 0
1077 151 129 -152 0
-1677 306 -305 283 0
1677 -306 -305 283 0
-1678 306 305 -283 0
1393 -233 -24 210 0
-1333 195 -217 218 0
1200 -184 -161 -183 0
-1200 184 -161 -183 0
1167 152 174 -175 0
-1167 152 174 175 0
1166 -152 174 -175 0
-1166 -152 174 175 0
1245 194 -195 172 0
-1245 195 172 194 0
1244 194 -195 -172 0
-1244 195 -172 194 0
1243 172 -194 -195 0
-1243 172 -194 195 0
1242 -194 -195 -172 0
-1242 195 -194 -172 0
1241 193 -194 124 0
-1241 193 194 124 0
1324 -166 -216 -193 0
-1303 209 187 210 0
1302 209 -210 -187 0
-1302 209 210 -187 0
1301 -209 187 -210 0
-1301 -209 187 210 0
1300 -209 -210 -187 0
-1300 -209 210 -187 0
1676 -306 -305 -283 0
1513 -263 -264 241 0
1621 -291 290 268 0
-1621 268 291 290 0
1620 -291 290 -268 0
-1620 -268 291 290 0
1619 268 -291 -290 0
-1619 268 291 -290 0
1618 -268 -291 -290 0
-1618 -268 291 -290 0
1613 288 -289 266 0
-1613 289 266 288 0
-1201 -183 161 184 0
-1031 118 141 -24 0
1030 -118 -141 -24 0
-1030 -118 141 -24 0
1612 -266 288 -289 0
-1109 137 159 160 0
1108 159 -137 -160 0
-1108 159 -137 160 0
1391 -233 24 210 0
-1531 268 244 -222 0
-1392 -210 -24 233 0
1392 -210 -24 -233 0
1530 -268 244 222 0
1531 -268 244 -222 0
1402 -235 -213 -236 0
-1403 -235 213 236 0
-1391 233 24 210 0
-1402 -235 -213 236 0
1390 -233 -210 24 0
-1390 -210 24 233 0
-1324 -166 216 -193 0
1303 209 -210 187 0
1515 263 241 -264 0
-1515 263 241 264 0
1514 263 -264 -241 0
-1514 -241 264 263 0
1129 -165 -166 143 0
-1129 -165 166 143 0
1128 -143 -166 -165 0
-1128 -143 166 -165 0
1109 137 159 -160 0
1070 127 -151 105 0
-1070 151 105 127 0
1033 118 -141 24 0
-1033 118 141 24 0
1032 -118 -141 24 0
-1032 -118 141 24 0
1031 118 -141 -24 0
-1512 -263 264 -241 0
2163 -430 361 474 0
-2163 430 361 474 0
2216 -444 -421 -443 0
-2216 -443 -421 444 0
2215 -419 -443 -397 0
2162 474 -430 -361 0
-2162 430 -361 474 0
2149 -424 403 474 0
-2149 -424 403 -474 0
2148 -403 -424 474 0
-2148 -403 -424 -474 0
2147 403 474 424 0
-2147 -474 403 424 0
-1326 216 166 -193 0
1326 -216 166 -193 0
1107 -160 -159 137 0
-1107 137 160 -159 0
-1235 193 -166 -124 0
1234 -166 124 -193 0
-1234 193 -166 124 0
-1344 -198 219 221 0
1678 -306 305 -283 0
1215 165 -188 -187 0
2219 443 421 -444 0
-2219 443 421 444 0
1344 -221 -198 219 0
2218 -444 443 -421 0
-2218 444 443 -421 0
-2220 -422 -444 445 0
-2217 -443 421 444 0
-2183 435 -434 -408 0
2182 -435 -434 408 0
-2182 435 -434 408 0
2165 -430 361 -474 0
-2165 430 361 -474 0
2164 -474 -430 -361 0
-2164 -474 430 -361 0
-2299 -419 465 -464 0
2298 419 -465 -464 0
-2298 419 465 -464 0
2411 -493 492 470 0
-2411 470 492 493 0
2410 -493 492 -470 0
-2410 493 492 -470 0
2409 -493 -492 470 0
-2409 493 -492 470 0
2408 -493 -492 -470 0
1416 -216 166 -239 0
-2408 493 -492 -470 0
2395 488 466 -489 0
-2395 488 466 489 0
2501 493 515 -516 0
-2501 516 493 515 0
1414 -239 -216 -166 0
2146 -403 474 424 0
-2146 -474 -403 424 0
1106 -160 -159 -137 0
-1106 -159 160 -137 0
1325 193 -216 -166 0
-1611 289 -288 266 0
1104 -155 88 -159 0
1102 155 88 -159 0
-1102 155 88 159 0
1611 -288 -289 266 0
-1612 -266 288 289 0
-1164 -152 -174 175 0
1131 -166 143 165 0
-1131 165 166 143 0
1130 -143 -166 165 0
-1130 -143 166 165 0
-2184 435 434 408 0
2183 -435 -434 -408 0
-2470 509 -486 -508 0
1636 -295 -272 294 0
-1636 295 -272 294 0
-1417 216 166 239 0
-1335 195 217 218 0
1335 195 217 -218 0
1164 -152 -174 -175 0
1240 193 -194 -124 0
-1240 193 194 -124 0
1239 -193 -194 124 0
-1239 -193 194 124 0
-1713 292 315 -314 0
1713 292 -315 -314 0
2500 -516 -493 515 0
-2500 516 -493 515 0
2499 493 -515 -516 0
-2215 -419 443 -397 0
2214 -419 -443 397 0
-2214 -419 443 397 0
2213 -443 -397 419 0
1018 -88 -137 -114 0
-1018 137 -88 -114 0
1017 -137 88 114 0
-1017 137 88 114 0
1016 -137 88 -114 0
-1016 137 88 -114 0
1084 152 -154 -130 0
-1327 216 166 193 0
1082 -152 -154 -130 0
2185 -435 434 -408 0
-2185 435 434 -408 0
2184 -435 434 408 0
-1679 283 305 306 0
2223 422 444 -445 0
-2223 422 444 445 0
2222 444 -445 -422 0
-2222 -422 445 444 0
1165 152 -174 -175 0
-1165 152 -174 175 0
1334 217 -195 -218 0
461 439 485 -486 0
394 461 -464 439 0
183 -299 205 -228 0
255 -237 -283 -235 0
297 318 321 228 0
293 177 294 155 0
305 -283 -303 -237 0
255 283 237 -235 0
-237 -234 -283 -235 0
-234 283 237 -235 0
-255 -237 234 283 0
283 -303 237 305 0
1238 -193 -194 -124 0
-1238 -193 194 -124 0
1237 -124 166 -193 0
-1237 -124 166 193 0
1236 -193 166 124 0
-1236 193 166 124 0
1235 -193 -166 -124 0
-2213 443 -397 419 0
2212 419 -443 397 0
-2212 419 443 397 0
2199 438 416 -439 0
-2199 438 416 439 0
2198 438 -416 -439 0
-2198 438 -416 439 0
2197 -438 416 -439 0
-2197 -438 416 439 0
2196 -438 -416 -439 0
-2196 -438 -416 439 0
2217 -444 421 -443 0
2220 -422 -444 -445 0
-2221 422 -444 445 0
2221 -444 -445 422 0
1679 283 305 -306 0
-237 -283 -326 327 0
283 -326 237 327 0
-255 237 234 -283 0
-605 32 9 0
604 -32 -9 0
-604 32 -9 0
1665 -302 -303 0
-1665 -302 303 0
-302 1662 -24 0
72 118 -24 0
1281 177 -204 0
-1281 177 204 0
1279 -204 -177 0
-1279 -177 204 0
-91 114 88 0
-114 -91 -88 0
-1667 302 303 0
1667 302 -303 0
266 -219 264 0
72 118 -48 0
-1398 235 -212 0
-292 291 -177 0
-237 -327 283 0
292 -291 -177 0
90 114 88 0
-1350 222 221 0
1629 292 -293 0
-1629 292 293 0
1627 -292 -293 0
-1627 -292 293 0
90 -114 -88 0
5 52 50 0
-72 -118 -24 0
-60 -13 59 0
228 -177 205 0
127 129 83 0
1350 -222 221 0
-1348 222 -221 0
1348 -222 -221 0
1154 -172 124 0
-302 1662 -255 0
-690 -52 54 0
690 -54 -52 0
-692 52 54 0
692 -54 52 0
605 -32 9 0
-1750 -302 325 0
1750 -302 -325 0
-1751 302 325 0
1751 302 -325 0
2179 -434 408 0
-2179 434 408 0
2178 -408 -434 0
-2178 -408 434 0
2418 493 -495 0
-2418 493 495 0
2416 -493 -495 0
-2416 -493 495 0
1662 -302 300 0
-1926 -416 300 0
1926 300 416 0
-1928 -300 -416 0
1928 -300 416 0
-195 127 -196 0
-79 104 81 0
-2040 375 399 0
2040 -399 375 0
292 291 177 0
-1654 24 300 0
-339 -293 338 0
-155 154 -109 0
-283 -285 262 0
-59 58 -36 0
331 -285 -330 0
165 -141 -119 0
-332 354 355 0
-333 356 -355 0
-360 358 -314 0
-212 213 166 0
-183 -160 -159 0
75 52 76 0
468 470 -400 0
-236 -237 -166 0
-283 237 -305 0
-205 159 -204 0
-80 104 81 0
-1154 172 124 0
1152 -124 -172 0
-1152 -124 172 0
34 55 -57 0
-43 -19 -44 0
360 358 314 0
-213 166 212 0
1637 -295 272 0
-1346 -219 221 0
-237 262 -239 0
183 -159 160 0
360 -358 -314 0
1346 -221 -219 0
-105 -104 82 0
-421 397 375 0
-1655 300 -24 0
-561 17 -13 0
-536 5 -4 0
536 -5 -4 0
-488 -465 -464 0
488 510 465 0
-361 -408 -339 0
-237 -236 213 0
-4 -27 26 0
-1345 198 221 0
461 485 508 0
537 -5 4 0
-537 5 4 0
-560 17 13 0
560 -17 13 0
-9 34 -33 0
1345 198 -221 0
-360 -358 314 0
332 309 -333 0
1398 -235 -212 0
1654 -300 24 0
544 5 -9 0
-544 5 9 0
194 216 -217 0
553 12 -13 0
-553 12 13 0
552 -13 -12 0
-325 326 303 0
-292 177 -291 0
-130 -154 155 0
-1637 295 272 0
119 -141 -143 0
177 -228 205 0
-218 196 219 0
-534 -1 4 0
534 -1 -4 0
-187 141 24 0
-166 212 -210 0
221 244 219 0
565 -19 -17 0
-565 -17 19 0
564 -19 17 0
-564 17 19 0
561 -17 -13 0
515 513 492 0
-474 454 430 0
302 -1662 300 0
302 -1662 -24 0
-1662 302 -255 0
119 143 141 0
-72 -118 -48 0
-12 57 58 0
-109 -40 84 0
244 -289 -290 0
96 -74 120 0
-1478 255 24 0
172 -127 196 0
1478 -255 24 0
535 -4 1 0
-328 306 329 0
-309 332 333 0
-309 -332 -333 0
-332 309 333 0
-328 -306 -329 0
328 -306 329 0
4 -535 1 0
-552 -12 13 0
551 -12 -9 0
-551 12 -9 0
550 9 -12 0
-550 12 9 0
-212 166 188 0
545 -5 -9 0
-545 -5 9 0
338 -315 314 0
1528 -268 -244 0
285 309 -263 0
-98 -74 -96 0
183 -160 159 0
-373 -329 -375 0
-2195 438 300 0
34 36 -12 0
-166 213 212 0
-309 -288 -334 0
-488 -510 512 0
488 510 512 0
-1477 255 -24 0
1477 -255 -24 0
-488 -465 -486 0
-416 -372 -326 0
-488 510 -465 0
1655 -300 -24 0
650 -19 -43 0
-650 -19 43 0
649 -43 19 0
-821 40 87 0
-474 -430 -454 0
430 474 -454 0
806 -83 82 0
-806 83 82 0
805 -83 60 0
-805 83 60 0
1073 -151 -127 0
-1073 151 -127 0
868 -76 -99 0
-868 -76 99 0
867 -98 -99 0
-867 -98 99 0
1299 -209 24 0
-1299 209 24 0
-183 159 160 0
-403 334 401 0
-172 -196 -195 0
403 -334 -356 0
-403 334 -356 0
1 24 48 0
236 237 213 0
-118 96 -24 0
-205 228 177 0
-2377 461 485 0
2377 -485 461 0
-574 -1 24 0
2472 -509 508 0
2260 -454 -455 0
118 96 24 0
1105 -88 -159 0
-1105 -88 159 0
-237 -262 239 0
444 513 466 0
262 -239 166 0
-1085 130 154 0
-1528 268 -244 0
1634 -295 -294 0
1085 130 -154 0
-262 166 239 0
188 -212 210 0
-1634 295 -294 0
-571 22 -19 0
43 -649 19 0
822 -87 -40 0
12 36 -34 0
-822 -40 87 0
821 -87 40 0
581 -26 1 0
-581 26 1 0
-143 141 -119 0
293 339 -315 0
-237 235 283 0
-1741 322 -321 0
1741 -322 -321 0
-1742 322 -299 0
1742 -322 -299 0
2140 -424 400 0
-2140 424 400 0
-1851 350 326 0
1851 -350 326 0
2139 -424 401 0
-2139 424 401 0
-1848 350 -327 0
1848 -350 -327 0
2471 -509 486 0
-2263 455 -431 0
2263 -431 -455 0
-2471 509 486 0
331 285 330 0
-76 99 -100 0
-2194 438 -300 0
1296 -209 -24 0
-1296 209 -24 0
1214 -188 -165 0
-1214 -165 188 0
791 -79 55 0
-791 55 79 0
575 1 -24 0
-2013 391 318 0
2013 -391 318 0
1217 187 -188 0
-1217 187 188 0
-575 1 24 0
2195 -438 300 0
-2260 455 -454 0
574 -1 -24 0
-33 57 -55 0
2285 438 -461 0
-2285 438 461 0
-1763 328 -327 0
1763 -328 -327 0
-5 -50 52 0
235 -283 237 0
571 -22 -19 0
570 -22 19 0
67 45 -91 0
328 306 -329 0
2194 -438 -300 0
307 -306 283 0
-299 228 297 0
-155 177 -272 0
-283 -327 237 0
-237 283 -305 0
-1764 328 -305 0
1764 -328 -305 0
2284 -438 -461 0
-2472 509 508 0
-2284 -438 461 0
236 237 -166 0
-430 431 408 0
22 44 -45 0
-154 -109 155 0
-67 -91 -45 0
-59 -82 81 0
-54 99 -100 0
-570 22 19 0
-443 -466 465 0
444 -466 -468 0
-285 287 263 0
-54 -99 100 0
-49 26 48 0
309 -334 288 0
24 71 48 0
1401 -235 234 0
-1401 235 234 0
-444 466 -468 0
299 -297 228 0
-400 -401 355 0
457 434 -455 0
470 -468 400 0
-76 -99 100 0
468 -492 400 0
74 -96 120 0
79 80 -104 0
27 49 50 0
-331 285 -330 0
488 465 -464 0
403 401 -334 0
-466 -444 513 0
-213 -212 -166 0
-331 -285 330 0
154 175 -177 0
-98 96 74 0
-130 -155 154 0
2462 -408 318 0
87 -19 -88 0
488 465 -486 0
-17 40 -36 0
300 -394 416 0
-127 129 -83 0
-188 212 0
119 -165 0
-1 -48 0
-233 234 0
12 -58 0
33 -57 0
228 204 0
339 408 0
-58 59 0
315 -339 0
-155 -294 0
332 -355 0
289 290 0
-309 263 0
435 2462 0
-297 -321 0
2462 -458 0
36 59 0
-300 394 0
-294 -177 0
-400 492 0
-394 464 0
4 27 0
-512 513 0
-309 -285 0
-309 287 0
-318 -321 0
339 -338 0
-513 -515 0
55 124 0
-26 27 0
-175 177 0
36 -84 0
-98 75 0
-98 120 0
187 -141 0
9 -34 0
-515 -492 0
424 470 0
-355 -354 0
272 -177 0
333 -356 0
217 241 0
119 120 0
127 174 0
-445 -468 0
-151 174 0
96 -73 0
195 196 0
510 -509 0
-154 177 0
-465 466 0
-87 88 0
-508 -461 0
-508 -485 0
489 512 0
187 -24 0
443 466 0
-27 -50 0
-50 -49 0
49 -48 0
-26 49 0
-338 -314 0
-22 45 0
45 -44 0
43 44 0
-52 -76 0
287 288 0
-28 -74 0
-50 -74 0
-397 421 0
325 -326 0
-81 -104 0
174 198 0
-28 52 0
104 105 0
36 13 0
-408 -431 0
430 -431 0
17 -40 0
-40 36 0
306 -307 0
-212 234 0
455 -457 0
-321 -228 0
-239 241 0
90 -91 0
-307 -283 0
-262 285 0
-399 400 0
-355 401 0
-416 394 0
-454 -431 0
401 400 0
174 -172 0
-75 -76 0
-327 326 0
129 -105 0
263 217 0
-262 263 0
-73 -74 0
283 285 0
-303 -326 0
-84 109 0
272 155 0
-264 288 0
-218 241 0
375 400 0
314 290 0
329 375 0
373 375 0
-81 82 0
-143 120 0
289 314 0
-59 60 0
137 161 0
-91 161 0
-114 161 0
372 416 0
99 124 0
198 175 0
-457 -434 0
198 196 0
-196 -219 0
-165 141 0
361 408 0
-354 400 0
-330 400 0
-120 124 0
-219 -244 0
-221 -244 0
-485 486 0
464 -461 0
287 -264 0
-239 263 0
-266 219 0
-216 217 0
-194 217 0
-219 218 0
-210 234 0
-266 -264 0
492 -468 0
326 372 0
-84 13 0
-83 -84 0
-293 -294 0
-334 333 0
241 288 0
-305 303 0
-24 -48 0
-356 355 0
-291 314 0
-58 -57 0
-34 57 0
13 60 0
105 -82 0
44 19 0
-159 205 0
205 204 0
421 -375 0
-48 -71 0
40 109 0
-244 290 0
160 161 0
88 19 0
464 -439 0
-439 486 0
-461 486 0
82 59 0
-71 -24 0
100 124 0
c restarts              : 1969
c conflicts             : 154            (226 /sec)
c decisions             : 3941374        (0.00 % random) (5796138 /sec)
c propagations          : 5083281        (7475413 /sec)
c conflict literals     : 541            (0.73 % deleted)
c CPU time (sec.): 0.68
